NAME: instance_3129
TYPE: TSP
DIMENSION: 20
EDGE_WEIGHT_TYPE: EUC_2D
NODE_COORD_SECTION
0 33.33 96.28
1 48.66 59.22
2 4.06 92.07
3 35.72 25.59
4 76.64 40.85
5 68.67 35.89
6 78.27 79.62
7 90.13 0.89
8 54.74 56.27
9 30.21 52.54
10 82.04 79.95
11 61.04 48.53
12 20.75 15.22
13 85.73 67.58
14 79.00 11.14
15 56.65 96.30
16 99.58 57.65
17 40.76 62.12
18 31.67 98.88
19 56.08 1.28
EOF
